n = 16;

R =
[|0,0,5,0,0,1,4,0,0,0,0,0,0,0,0,0,
 |0,0,5,5,4,0,4,0,7,7,7,7,7,7,7,0,
 |0,0,5,5,4,0,4,6,6,6,6,6,6,0,0,0,
 |0,0,5,5,4,0,4,0,0,0,0,0,0,0,0,4,
 |0,5,5,5,4,0,0,0,0,0,0,0,0,0,8,4,
 |0,5,7,5,6,6,6,6,6,6,0,0,2,2,8,4,
 |0,5,7,0,0,0,2,2,1,0,0,0,0,0,8,4,
 |0,5,7,1,0,0,0,7,7,7,7,7,7,7,8,0,
 |0,5,7,0,1,0,0,0,0,0,1,0,0,0,8,0,
 |0,0,7,0,1,0,6,6,6,6,6,6,0,0,8,0,
 |0,0,7,0,0,2,3,0,0,0,0,0,3,0,8,0,
 |1,0,7,0,0,2,3,0,0,0,0,0,3,0,8,4,
 |0,0,3,0,0,0,3,0,0,0,0,0,3,0,0,4,
 |0,0,3,0,0,0,0,0,0,6,6,6,6,6,6,4,
 |0,0,3,0,0,0,0,0,0,0,1,4,4,4,4,4,
 |4,4,4,4,0,0,0,8,8,8,8,8,8,8,8,0,
 |];

